32      4       
13      13      19      14      
0       0       0       0       0       3       2       3       5       
9       11      1       2       1       1       4       
5       1       1       3       6       1       4       
4       3       7       1       1       2       11      6       
5       5       1       1       3       2       11      6       
4       4       5       7       1       2       10      7       
10      9       6       1       4       4       19      14      13      8       
4       6       9       10      1       3       21      16      9       
9       1       7       8       6       2       17      12      
5       4       1       6       1       4       21      20      17      15      
6       5       1       1       1       2       16      15      
4       5       1       1       4       4       25      22      20      15      
8       3       1       8       5       2       20      15      
6       4       2       2       4       4       23      21      20      17      
7       6       1       1       1       4       31      29      24      18      
3       1       1       1       5       3       26      20      17      
7       2       5       2       5       3       30      28      25      
4       2       4       2       8       2       30      23      
3       1       4       17      3       4       30      29      28      27      
1       2       1       10      9       3       30      28      27      
5       1       1       1       3       3       29      28      27      
6       11      1       1       1       3       30      29      27      
7       1       6       1       1       2       28      26      
4       1       1       1       2       2       28      26      
10      1       1       15      6       2       29      27      
4       1       6       1       1       1       27      
3       1       3       1       7       1       32      
7       1       1       8       10      1       32      
2       1       6       13      3       1       32      
1       2       5       8       1       1       32      
5       2       8       9       1       1       32      
0       0       0       0       0       0       
